73
0
11
20
25
30
46
50
54
57
66
79
111
112
134
160
208
217
244
264
273
291
292
302
309
323
326
341
344
352
355
359
368
385
404
406
451
452
474
491
507
518
520
538
560
571
598
631
653
716
730
732
742
747
754
759
764
768
813
820
824
825
833
850
862
879
891
897
939
947
956
976
996
1016
20
21
34
53
55
69
90
113
114
115
146
160
199
200
220
223
238
239
308
351
365
